Minimize
obj: z

Subject To
1.0 X_1_1 + 1.0 X_1_2 + 1.0 X_1_3 + 1.0 X_1_4 + 1.0 X_1_5 + 1.0 X_1_6 + 1.0 X_1_7 + 1.0 X_1_8 + 1.0 X_1_9 + 1.0 X_1_10 = 1
1.0 X_2_1 + 1.0 X_2_2 + 1.0 X_2_3 + 1.0 X_2_4 + 1.0 X_2_5 + 1.0 X_2_6 + 1.0 X_2_7 + 1.0 X_2_8 + 1.0 X_2_9 + 1.0 X_2_10 = 1
1.0 X_3_1 + 1.0 X_3_2 + 1.0 X_3_3 + 1.0 X_3_4 + 1.0 X_3_5 + 1.0 X_3_6 + 1.0 X_3_7 + 1.0 X_3_8 + 1.0 X_3_9 + 1.0 X_3_10 = 1
1.0 X_4_1 + 1.0 X_4_2 + 1.0 X_4_3 + 1.0 X_4_4 + 1.0 X_4_5 + 1.0 X_4_6 + 1.0 X_4_7 + 1.0 X_4_8 + 1.0 X_4_9 + 1.0 X_4_10 = 1
1.0 X_5_1 + 1.0 X_5_2 + 1.0 X_5_3 + 1.0 X_5_4 + 1.0 X_5_5 + 1.0 X_5_6 + 1.0 X_5_7 + 1.0 X_5_8 + 1.0 X_5_9 + 1.0 X_5_10 = 1
1.0 X_6_1 + 1.0 X_6_2 + 1.0 X_6_3 + 1.0 X_6_4 + 1.0 X_6_5 + 1.0 X_6_6 + 1.0 X_6_7 + 1.0 X_6_8 + 1.0 X_6_9 + 1.0 X_6_10 = 1
1.0 X_7_1 + 1.0 X_7_2 + 1.0 X_7_3 + 1.0 X_7_4 + 1.0 X_7_5 + 1.0 X_7_6 + 1.0 X_7_7 + 1.0 X_7_8 + 1.0 X_7_9 + 1.0 X_7_10 = 1
1.0 X_8_1 + 1.0 X_8_2 + 1.0 X_8_3 + 1.0 X_8_4 + 1.0 X_8_5 + 1.0 X_8_6 + 1.0 X_8_7 + 1.0 X_8_8 + 1.0 X_8_9 + 1.0 X_8_10 = 1
1.0 X_9_1 + 1.0 X_9_2 + 1.0 X_9_3 + 1.0 X_9_4 + 1.0 X_9_5 + 1.0 X_9_6 + 1.0 X_9_7 + 1.0 X_9_8 + 1.0 X_9_9 + 1.0 X_9_10 = 1
1.0 X_10_1 + 1.0 X_10_2 + 1.0 X_10_3 + 1.0 X_10_4 + 1.0 X_10_5 + 1.0 X_10_6 + 1.0 X_10_7 + 1.0 X_10_8 + 1.0 X_10_9 + 1.0 X_10_10 = 1

1.0 X_1_1 - 1.0 X_1_1 <= 0
1.0 X_1_2 - 1.0 X_2_2 <= 0
1.0 X_1_3 - 1.0 X_3_3 <= 0
1.0 X_1_4 - 1.0 X_4_4 <= 0
1.0 X_1_5 - 1.0 X_5_5 <= 0
1.0 X_1_6 - 1.0 X_6_6 <= 0
1.0 X_1_7 - 1.0 X_7_7 <= 0
1.0 X_1_8 - 1.0 X_8_8 <= 0
1.0 X_1_9 - 1.0 X_9_9 <= 0
1.0 X_1_10 - 1.0 X_10_10 <= 0

1.0 X_2_1 - 1.0 X_1_1 <= 0
1.0 X_2_2 - 1.0 X_2_2 <= 0
1.0 X_2_3 - 1.0 X_3_3 <= 0
1.0 X_2_4 - 1.0 X_4_4 <= 0
1.0 X_2_5 - 1.0 X_5_5 <= 0
1.0 X_2_6 - 1.0 X_6_6 <= 0
1.0 X_2_7 - 1.0 X_7_7 <= 0
1.0 X_2_8 - 1.0 X_8_8 <= 0
1.0 X_2_9 - 1.0 X_9_9 <= 0
1.0 X_2_10 - 1.0 X_10_10 <= 0

1.0 X_3_1 - 1.0 X_1_1 <= 0
1.0 X_3_2 - 1.0 X_2_2 <= 0
1.0 X_3_3 - 1.0 X_3_3 <= 0
1.0 X_3_4 - 1.0 X_4_4 <= 0
1.0 X_3_5 - 1.0 X_5_5 <= 0
1.0 X_3_6 - 1.0 X_6_6 <= 0
1.0 X_3_7 - 1.0 X_7_7 <= 0
1.0 X_3_8 - 1.0 X_8_8 <= 0
1.0 X_3_9 - 1.0 X_9_9 <= 0
1.0 X_3_10 - 1.0 X_10_10 <= 0

1.0 X_4_1 - 1.0 X_1_1 <= 0
1.0 X_4_2 - 1.0 X_2_2 <= 0
1.0 X_4_3 - 1.0 X_3_3 <= 0
1.0 X_4_4 - 1.0 X_4_4 <= 0
1.0 X_4_5 - 1.0 X_5_5 <= 0
1.0 X_4_6 - 1.0 X_6_6 <= 0
1.0 X_4_7 - 1.0 X_7_7 <= 0
1.0 X_4_8 - 1.0 X_8_8 <= 0
1.0 X_4_9 - 1.0 X_9_9 <= 0
1.0 X_4_10 - 1.0 X_10_10 <= 0

1.0 X_5_1 - 1.0 X_1_1 <= 0
1.0 X_5_2 - 1.0 X_2_2 <= 0
1.0 X_5_3 - 1.0 X_3_3 <= 0
1.0 X_5_4 - 1.0 X_4_4 <= 0
1.0 X_5_5 - 1.0 X_5_5 <= 0
1.0 X_5_6 - 1.0 X_6_6 <= 0
1.0 X_5_7 - 1.0 X_7_7 <= 0
1.0 X_5_8 - 1.0 X_8_8 <= 0
1.0 X_5_9 - 1.0 X_9_9 <= 0
1.0 X_5_10 - 1.0 X_10_10 <= 0

1.0 X_6_1 - 1.0 X_1_1 <= 0
1.0 X_6_2 - 1.0 X_2_2 <= 0
1.0 X_6_3 - 1.0 X_3_3 <= 0
1.0 X_6_4 - 1.0 X_4_4 <= 0
1.0 X_6_5 - 1.0 X_5_5 <= 0
1.0 X_6_6 - 1.0 X_6_6 <= 0
1.0 X_6_7 - 1.0 X_7_7 <= 0
1.0 X_6_8 - 1.0 X_8_8 <= 0
1.0 X_6_9 - 1.0 X_9_9 <= 0
1.0 X_6_10 - 1.0 X_10_10 <= 0

1.0 X_7_1 - 1.0 X_1_1 <= 0
1.0 X_7_2 - 1.0 X_2_2 <= 0
1.0 X_7_3 - 1.0 X_3_3 <= 0
1.0 X_7_4 - 1.0 X_4_4 <= 0
1.0 X_7_5 - 1.0 X_5_5 <= 0
1.0 X_7_6 - 1.0 X_6_6 <= 0
1.0 X_7_7 - 1.0 X_7_7 <= 0
1.0 X_7_8 - 1.0 X_8_8 <= 0
1.0 X_7_9 - 1.0 X_9_9 <= 0
1.0 X_7_10 - 1.0 X_10_10 <= 0

1.0 X_8_1 - 1.0 X_1_1 <= 0
1.0 X_8_2 - 1.0 X_2_2 <= 0
1.0 X_8_3 - 1.0 X_3_3 <= 0
1.0 X_8_4 - 1.0 X_4_4 <= 0
1.0 X_8_5 - 1.0 X_5_5 <= 0
1.0 X_8_6 - 1.0 X_6_6 <= 0
1.0 X_8_7 - 1.0 X_7_7 <= 0
1.0 X_8_8 - 1.0 X_8_8 <= 0
1.0 X_8_9 - 1.0 X_9_9 <= 0
1.0 X_8_10 - 1.0 X_10_10 <= 0

1.0 X_9_1 - 1.0 X_1_1 <= 0
1.0 X_9_2 - 1.0 X_2_2 <= 0
1.0 X_9_3 - 1.0 X_3_3 <= 0
1.0 X_9_4 - 1.0 X_4_4 <= 0
1.0 X_9_5 - 1.0 X_5_5 <= 0
1.0 X_9_6 - 1.0 X_6_6 <= 0
1.0 X_9_7 - 1.0 X_7_7 <= 0
1.0 X_9_8 - 1.0 X_8_8 <= 0
1.0 X_9_9 - 1.0 X_9_9 <= 0
1.0 X_9_10 - 1.0 X_10_10 <= 0

1.0 X_10_1 - 1.0 X_1_1 <= 0
1.0 X_10_2 - 1.0 X_2_2 <= 0
1.0 X_10_3 - 1.0 X_3_3 <= 0
1.0 X_10_4 - 1.0 X_4_4 <= 0
1.0 X_10_5 - 1.0 X_5_5 <= 0
1.0 X_10_6 - 1.0 X_6_6 <= 0
1.0 X_10_7 - 1.0 X_7_7 <= 0
1.0 X_10_8 - 1.0 X_8_8 <= 0
1.0 X_10_9 - 1.0 X_9_9 <= 0
1.0 X_10_10 - 1.0 X_10_10 <= 0

1.0 X_1_1 + 1.0 X_2_2 + 1.0 X_3_3 + 1.0 X_4_4 + 1.0 X_5_5 + 1.0 X_6_6 + 1.0 X_7_7 + 1.0 X_8_8 + 1.0 X_9_9 + 1.0 X_10_10 = 2

r_1 - 0.000000 X_1_1 >= 0
r_2 - 19961.055803 X_1_2 >= 0
r_3 - 15695.196543 X_1_3 >= 0
r_4 - 23247.451824 X_1_4 >= 0
r_5 - 23046.622137 X_1_5 >= 0
r_6 - 30371.322913 X_1_6 >= 0
r_7 - 31577.964679 X_1_7 >= 0
r_8 - 32743.328913 X_1_8 >= 0
r_9 - 35819.163316 X_1_9 >= 0
r_10 - 36032.738594 X_1_10 >= 0
r_1 - 19961.055803 X_2_1 >= 0
r_2 - 0.000000 X_2_2 >= 0
r_3 - 20191.326859 X_2_3 >= 0
r_4 - 12595.394227 X_2_4 >= 0
r_5 - 24553.875698 X_2_5 >= 0
r_6 - 18813.216573 X_2_6 >= 0
r_7 - 29874.336918 X_2_7 >= 0
r_8 - 25425.407695 X_2_8 >= 0
r_9 - 38247.797800 X_2_9 >= 0
r_10 - 30557.937480 X_2_10 >= 0
r_1 - 15695.196543 X_3_1 >= 0
r_2 - 20191.326859 X_3_2 >= 0
r_3 - 0.000000 X_3_3 >= 0
r_4 - 13742.833386 X_3_4 >= 0
r_5 - 7366.854893 X_3_5 >= 0
r_6 - 18671.421236 X_3_6 >= 0
r_7 - 15890.654144 X_3_7 >= 0
r_8 - 18296.575315 X_3_8 >= 0
r_9 - 20875.261887 X_3_9 >= 0
r_10 - 20739.350725 X_3_10 >= 0
r_1 - 23247.451824 X_4_1 >= 0
r_2 - 12595.394227 X_4_2 >= 0
r_3 - 13742.833386 X_4_3 >= 0
r_4 - 0.000000 X_4_4 >= 0
r_5 - 14466.613927 X_4_5 >= 0
r_6 - 7400.714742 X_4_6 >= 0
r_7 - 17776.679056 X_4_7 >= 0
r_8 - 12874.755208 X_4_8 >= 0
r_9 - 26799.936100 X_4_9 >= 0
r_10 - 17962.848297 X_4_10 >= 0
r_1 - 23046.622137 X_5_1 >= 0
r_2 - 24553.875698 X_5_2 >= 0
r_3 - 7366.854893 X_5_3 >= 0
r_4 - 14466.613927 X_5_4 >= 0
r_5 - 0.000000 X_5_5 >= 0
r_6 - 16356.968286 X_5_6 >= 0
r_7 - 8627.190403 X_5_7 >= 0
r_8 - 13047.370259 X_5_8 >= 0
r_9 - 14115.806253 X_5_9 >= 0
r_10 - 14158.796291 X_5_10 >= 0
r_1 - 30371.322913 X_6_1 >= 0
r_2 - 18813.216573 X_6_2 >= 0
r_3 - 18671.421236 X_6_3 >= 0
r_4 - 7400.714742 X_6_4 >= 0
r_5 - 16356.968286 X_6_5 >= 0
r_6 - 0.000000 X_6_6 >= 0
r_7 - 15746.216312 X_6_7 >= 0
r_8 - 7942.623442 X_6_8 >= 0
r_9 - 25355.509097 X_6_9 >= 0
r_10 - 13245.802060 X_6_10 >= 0
r_1 - 31577.964679 X_7_1 >= 0
r_2 - 29874.336918 X_7_2 >= 0
r_3 - 15890.654144 X_7_3 >= 0
r_4 - 17776.679056 X_7_4 >= 0
r_5 - 8627.190403 X_7_5 >= 0
r_6 - 15746.216312 X_7_6 >= 0
r_7 - 0.000000 X_7_7 >= 0
r_8 - 8784.115184 X_7_8 >= 0
r_9 - 9609.398813 X_7_9 >= 0
r_10 - 6701.527622 X_7_10 >= 0
r_1 - 32743.328913 X_8_1 >= 0
r_2 - 25425.407695 X_8_2 >= 0
r_3 - 18296.575315 X_8_3 >= 0
r_4 - 12874.755208 X_8_4 >= 0
r_5 - 13047.370259 X_8_5 >= 0
r_6 - 7942.623442 X_8_6 >= 0
r_7 - 8784.115184 X_8_7 >= 0
r_8 - 0.000000 X_8_8 >= 0
r_9 - 18158.264902 X_8_9 >= 0
r_10 - 5353.363665 X_8_10 >= 0
r_1 - 35819.163316 X_9_1 >= 0
r_2 - 38247.797800 X_9_2 >= 0
r_3 - 20875.261887 X_9_3 >= 0
r_4 - 26799.936100 X_9_4 >= 0
r_5 - 14115.806253 X_9_5 >= 0
r_6 - 25355.509097 X_9_6 >= 0
r_7 - 9609.398813 X_9_7 >= 0
r_8 - 18158.264902 X_9_8 >= 0
r_9 - 0.000000 X_9_9 >= 0
r_10 - 14475.311785 X_9_10 >= 0
r_1 - 36032.738594 X_10_1 >= 0
r_2 - 30557.937480 X_10_2 >= 0
r_3 - 20739.350725 X_10_3 >= 0
r_4 - 17962.848297 X_10_4 >= 0
r_5 - 14158.796291 X_10_5 >= 0
r_6 - 13245.802060 X_10_6 >= 0
r_7 - 6701.527622 X_10_7 >= 0
r_8 - 5353.363665 X_10_8 >= 0
r_9 - 14475.311785 X_10_9 >= 0
r_10 - 0.000000 X_10_10 >= 0

z - r_1 - r_1 >= 0.000000
z - r_1 - r_2 >= 14970.791852
z - r_2 - r_2 >= 0.000000
z - r_1 - r_3 >= 11771.397407
z - r_2 - r_3 >= 15143.495144
z - r_3 - r_3 >= 0.000000
z - r_1 - r_4 >= 17435.588868
z - r_2 - r_4 >= 9446.545670
z - r_3 - r_4 >= 10307.125039
z - r_4 - r_4 >= 0.000000
z - r_1 - r_5 >= 17284.966602
z - r_2 - r_5 >= 18415.406773
z - r_3 - r_5 >= 5525.141169
z - r_4 - r_5 >= 10849.960445
z - r_5 - r_5 >= 0.000000
z - r_1 - r_6 >= 22778.492185
z - r_2 - r_6 >= 14109.912430
z - r_3 - r_6 >= 14003.565927
z - r_4 - r_6 >= 5550.536057
z - r_5 - r_6 >= 12267.726214
z - r_6 - r_6 >= 0.000000
z - r_1 - r_7 >= 23683.473509
z - r_2 - r_7 >= 22405.752688
z - r_3 - r_7 >= 11917.990608
z - r_4 - r_7 >= 13332.509292
z - r_5 - r_7 >= 6470.392802
z - r_6 - r_7 >= 11809.662234
z - r_7 - r_7 >= 0.000000
z - r_1 - r_8 >= 24557.496685
z - r_2 - r_8 >= 19069.055771
z - r_3 - r_8 >= 13722.431487
z - r_4 - r_8 >= 9656.066406
z - r_5 - r_8 >= 9785.527695
z - r_6 - r_8 >= 5956.967581
z - r_7 - r_8 >= 6588.086388
z - r_8 - r_8 >= 0.000000
z - r_1 - r_9 >= 26864.372487
z - r_2 - r_9 >= 28685.848350
z - r_3 - r_9 >= 15656.446415
z - r_4 - r_9 >= 20099.952075
z - r_5 - r_9 >= 10586.854690
z - r_6 - r_9 >= 19016.631823
z - r_7 - r_9 >= 7207.049110
z - r_8 - r_9 >= 13618.698677
z - r_9 - r_9 >= 0.000000
z - r_1 - r_10 >= 27024.553946
z - r_2 - r_10 >= 22918.453110
z - r_3 - r_10 >= 15554.513044
z - r_4 - r_10 >= 13472.136222
z - r_5 - r_10 >= 10619.097218
z - r_6 - r_10 >= 9934.351545
z - r_7 - r_10 >= 5026.145716
z - r_8 - r_10 >= 4015.022749
z - r_9 - r_10 >= 10856.483839
z - r_10 - r_10 >= 0.000000

BOUNDS
0 <= r_0 <= inf
0 <= r_1 <= inf
0 <= r_2 <= inf
0 <= r_3 <= inf
0 <= r_4 <= inf
0 <= r_5 <= inf
0 <= r_6 <= inf
0 <= r_7 <= inf
0 <= r_8 <= inf
0 <= r_9 <= inf

Binary
X_1_1
X_1_2
X_1_3
X_1_4
X_1_5
X_1_6
X_1_7
X_1_8
X_1_9
X_1_10
X_2_1
X_2_2
X_2_3
X_2_4
X_2_5
X_2_6
X_2_7
X_2_8
X_2_9
X_2_10
X_3_1
X_3_2
X_3_3
X_3_4
X_3_5
X_3_6
X_3_7
X_3_8
X_3_9
X_3_10
X_4_1
X_4_2
X_4_3
X_4_4
X_4_5
X_4_6
X_4_7
X_4_8
X_4_9
X_4_10
X_5_1
X_5_2
X_5_3
X_5_4
X_5_5
X_5_6
X_5_7
X_5_8
X_5_9
X_5_10
X_6_1
X_6_2
X_6_3
X_6_4
X_6_5
X_6_6
X_6_7
X_6_8
X_6_9
X_6_10
X_7_1
X_7_2
X_7_3
X_7_4
X_7_5
X_7_6
X_7_7
X_7_8
X_7_9
X_7_10
X_8_1
X_8_2
X_8_3
X_8_4
X_8_5
X_8_6
X_8_7
X_8_8
X_8_9
X_8_10
X_9_1
X_9_2
X_9_3
X_9_4
X_9_5
X_9_6
X_9_7
X_9_8
X_9_9
X_9_10
X_10_1
X_10_2
X_10_3
X_10_4
X_10_5
X_10_6
X_10_7
X_10_8
X_10_9
X_10_10

End